BMC using SAT solver/counter.smt2
; SMT-LIBv2 description generated by Yosys 0.61+21 (git sha1 967b47d98, clang++ 18.1.8 -fPIC -O3)
; yosys-smt2-module counter
(declare-sort |counter_s| 0)
(declare-fun |counter_is| (|counter_s|) Bool)
(declare-fun |counter#0| (|counter_s|) Bool) ; \clk
; yosys-smt2-input clk 1
; yosys-smt2-wire clk 1
; yosys-smt2-witness {"offset": 0, "path": ["\\clk"], "smtname": "clk", "smtoffset": 0, "type": "input", "width": 1}
(define-fun |counter_n clk| ((state |counter_s|)) Bool (|counter#0| state))
; yosys-smt2-witness {"offset": 0, "path": ["\\count"], "smtname": 1, "smtoffset": 0, "type": "reg", "width": 2}
(declare-fun |counter#1| (|counter_s|) (_ BitVec 2)) ; \count
; yosys-smt2-output count 2
; yosys-smt2-register count 2
; yosys-smt2-wire count 2
(define-fun |counter_n count| ((state |counter_s|)) (_ BitVec 2) (|counter#1| state))
; yosys-smt2-witness {"offset": 0, "path": ["\\f_past_valid"], "smtname": 2, "smtoffset": 0, "type": "reg", "width": 1}
(declare-fun |counter#2| (|counter_s|) (_ BitVec 1)) ; \f_past_valid
; yosys-smt2-register f_past_valid 1
; yosys-smt2-wire f_past_valid 1
(define-fun |counter_n f_past_valid| ((state |counter_s|)) Bool (= ((_ extract 0 0) (|counter#2| state)) #b1))
(declare-fun |counter#3| (|counter_s|) Bool) ; \rst
; yosys-smt2-input rst 1
; yosys-smt2-wire rst 1
; yosys-smt2-witness {"offset": 0, "path": ["\\rst"], "smtname": "rst", "smtoffset": 0, "type": "input", "width": 1}
(define-fun |counter_n rst| ((state |counter_s|)) Bool (|counter#3| state))
(define-fun |counter#4| ((state |counter_s|)) (_ BitVec 2) (bvadd (|counter#1| state) #b01)) ; $add$lively_counter.v:6$2_Y
(define-fun |counter#5| ((state |counter_s|)) (_ BitVec 2) (ite (|counter#3| state) #b00 (|counter#4| state))) ; $0\count[1:0]
(define-fun |counter_a| ((state |counter_s|)) Bool true)
(define-fun |counter_u| ((state |counter_s|)) Bool true)
(define-fun |counter_i| ((state |counter_s|)) Bool 
  (= (= ((_ extract 0 0) (|counter#2| state)) #b1) false) ; f_past_valid
)
(define-fun |counter_h| ((state |counter_s|)) Bool true)
(define-fun |counter_t| ((state |counter_s|) (next_state |counter_s|)) Bool (and
  (= #b1 (|counter#2| next_state)) ; $procdff$18 \f_past_valid
  (= (|counter#5| state) (|counter#1| next_state)) ; $procdff$19 \count
)) ; end of module counter
; yosys-smt2-topmod counter
; end of yosys output
